;; sequence(s): A162773
;; terms: 2 15 110 800 5800 42000 304000 2200000 15920000 115200000 833600000 6032000000 43648000000 315840000000 2285440000000 16537600000000 119667200000000 865920000000000 6265856000000000 45340160000000000
;; small program: loop2((((1 + 2) * (((x mod y) + x) + x)) + x) + y, x, x, 2, 1)
;; fast program: (loop2((2 * (x + x)) - y, x + y, x, 2 + 2, 1) * loop(x + x, x, 1)) div 2
(set-logic UFNIA)
(define-fun divf ((a Int) (b Int)) Int (ite (< 0 b) (div a b) (div (- a) (- b))))
(define-fun modf ((a Int) (b Int)) Int (ite (< 0 b) (mod a b) (- (mod (- a) (- b)))))
(declare-fun f0 (Int Int) Int)
(declare-fun g0 (Int) Int)
(declare-fun h0 (Int) Int)
(declare-fun i0 () Int)
(declare-fun j0 () Int)
(declare-fun u0 (Int Int Int) Int)
(declare-fun v0 (Int Int Int) Int)
(declare-fun w0 (Int) Int)
(declare-fun small (Int) Int)
(declare-fun f1 (Int Int) Int)
(declare-fun g1 (Int Int) Int)
(declare-fun h1 (Int) Int)
(declare-fun i1 () Int)
(declare-fun j1 () Int)
(declare-fun u1 (Int Int Int) Int)
(declare-fun v1 (Int Int Int) Int)
(declare-fun w1 (Int) Int)
(declare-fun f2 (Int) Int)
(declare-fun g2 (Int) Int)
(declare-fun h2 () Int)
(declare-fun u2 (Int Int) Int)
(declare-fun v2 (Int) Int)
(declare-fun fast (Int) Int)
(assert (forall ((x Int) (y Int)) (= (f0 x y) (+ (+ (* (+ 1 2) (+ (+ (modf x y) x) x)) x) y))))
(assert (forall ((x Int)) (= (g0 x) x)))
(assert (forall ((x Int)) (= (h0 x) x)))
(assert (= i0 2))
(assert (= j0 1))
(assert (forall ((x Int) (y Int) (z Int)) (= (u0 x y z) (ite (<= x 0) y (f0 (u0 (- x 1) y z) (v0 (- x 1) y z))))))
(assert (forall ((x Int) (y Int) (z Int)) (= (v0 x y z) (ite (<= x 0) z (g0 (u0 (- x 1) y z))))))
(assert (forall ((x Int)) (= (w0 x) (u0 (h0 x) i0 j0))))
(assert (forall ((x Int)) (= (small x) (w0 x))))
(assert (forall ((x Int) (y Int)) (= (f1 x y) (- (* 2 (+ x x)) y))))
(assert (forall ((x Int) (y Int)) (= (g1 x y) (+ x y))))
(assert (forall ((x Int)) (= (h1 x) x)))
(assert (= i1 (+ 2 2)))
(assert (= j1 1))
(assert (forall ((x Int) (y Int) (z Int)) (= (u1 x y z) (ite (<= x 0) y (f1 (u1 (- x 1) y z) (v1 (- x 1) y z))))))
(assert (forall ((x Int) (y Int) (z Int)) (= (v1 x y z) (ite (<= x 0) z (g1 (u1 (- x 1) y z) (v1 (- x 1) y z))))))
(assert (forall ((x Int)) (= (w1 x) (u1 (h1 x) i1 j1))))
(assert (forall ((x Int)) (= (f2 x) (+ x x))))
(assert (forall ((x Int)) (= (g2 x) x)))
(assert (= h2 1))
(assert (forall ((x Int) (y Int)) (= (u2 x y) (ite (<= x 0) y (f2 (u2 (- x 1) y))))))
(assert (forall ((x Int)) (= (v2 x) (u2 (g2 x) h2))))
(assert (forall ((x Int)) (= (fast x) (divf (* (w1 x) (v2 x)) 2))))
(assert (exists ((c Int)) (and (>= c 0) (not (= (small c) (fast c))))))
(check-sat)
